(set-logic HORN)
(declare-fun inv ((_ BitVec 64) (_ BitVec 64) ) Bool)
(assert (forall ((x (_ BitVec 64)) (y (_ BitVec 64))) 
       (=> ( and ( = x ( bvsub (_ bv0 64) (_ bv50 64) ) ) ( bvslt ( bvsub (_ bv0 64) (_ bv1000 64) ) y ) ) (inv x y))))
(assert (forall ((x (_ BitVec 64)) (y (_ BitVec 64)) (x! (_ BitVec 64)) (y! (_ BitVec 64))) 
       (=> (and (inv x y) ( and ( bvslt x (_ bv0 64) ) ( = x! ( bvadd x y ) ) ( = y! ( bvadd y (_ bv1 64) ) ) )) (inv x! y!))))
(assert (forall ((x (_ BitVec 64)) (y (_ BitVec 64))) 
       (=> (inv x y) ( or ( bvslt x (_ bv0 64) ) ( bvsgt y (_ bv0 64) ) ))))
(check-sat)
